100
1000
816
778
88
755
440
889
80
112
848
471
128
715
724
843
153
830
84
394
827
445
455
727
814
62
578
150
899
650
780
451
123
603
944
994
164
201
832
796
919
417
432
650
99
125
327
59
122
551
264
650
444
602
254
72
232
38
32
291
408
322
249
995
909
178
755
619
832
787
155
194
94
229
208
801
252
953
800
976
745
28
579
717
880
972
228
721
618
873
344
679
289
207
819
715
15
8
512
351
278
874
